peakDumbCharging = 25900; 
Machine = anon_enum(16); 
machineSpeed = [3700,3700,3700,3700,3700,3700,3700,3700,3700,3700,3700,3700,3700,3700,3700,3700]; 
machineLoad = [3700,3700,3700,3700,3700,3700,3700,3700,3700,3700,3700,3700,3700,3700,3700,3700]; 
Car = anon_enum(40); 
demandCar = [3480,3400,11480,9200,19560,7880,5520,9120,10480,1600,3280,3600,80,8320,12440,4680,6880,4480,6200,15240,4800,18720,1320,8560,10360,720,2560,16960,6800,5560,5440,3480,4760,6280,1680,4040,6760,8760,4360,13520]; 
arrivalCar = [72,69,67,66,64,64,63,62,60,59,59,59,59,55,53,53,53,53,52,50,50,49,48,47,46,45,44,44,44,44,43,43,42,41,38,38,38,35,34,30]; 
departureCar = [75,71,73,70,71,69,65,66,64,65,62,62,60,59,59,56,57,56,55,56,52,57,50,50,53,47,46,50,55,50,48,47,46,46,39,41,42,40,38,35]; 
